SCIP version 5.0.0 [precision: 8 byte] [memory: block] [mode: optimized] [LP solver: NONE] [GitHash: 3bbd232]
Copyright (C) 2002-2017 Konrad-Zuse-Zentrum fuer Informationstechnik Berlin (ZIB)

External codes: 
  Readline EditLine w  GNU library for command line editing (gnu.org/s/readline)
  CppAD 20160000.1     Algorithmic Differentiation of C++ algorithms developed by B. Bell (www.coin-or.org/CppAD)
  ZLIB 1.2.5           General purpose compression library by J. Gailly and M. Adler (zlib.net)
  GMP 6.1.2            GNU Multiple Precision Arithmetic Library developed by T. Granlund (gmplib.org)

user parameter file <scip.set> not found - using default parameters

read problem <../../Split_data/output/parkin/3/0_sample_parkin.logreg>
============

File name	:	../../Split_data/output/parkin/3/0_sample_parkin.logreg
Problem name 	:	0_sample_parkin
Number of data	:	156
Number of var	:	22
The given data has linear independence

[dim=1] time: 0.002952
[dim=2] time: 0.005927
[dim=3] time: 0.008759
[dim=4] time: 0.01107
[dim=5] time: 0.0133
[dim=6] time: 0.015769
[dim=7] Time of forward = 0.018554sec.
AIC: 99.8507
k: 6

[dim=22] time: 0.062069
[dim=21] time: 0.081543
[dim=20] time: 0.108317
[dim=19] time: 0.114941
[dim=18] time: 0.225054
[dim=17] time: 0.306795
[dim=16] time: 0.311176
[dim=15] time: 0.370028
[dim=14] time: 0.477403
[dim=13] time: 0.492197
[dim=12] time: 0.494335
[dim=11] time: 0.496343
[dim=10] time: 0.498209
[dim=9] time: 0.499849
[dim=8] time: 0.501283
[dim=7] Time of backward = 0.502489sec.
AIC: 86.5203
k: 8
